(set-logic HORN)
(set-info :source |
    Benchmark: C_VC
    Output by Princess (http://www.philipp.ruemmer.org/princess.shtml)
|)
(set-info :status unsat)
(declare-heap Heap Addr HeapObject
 defObj
 ((HeapObject 0)) (
  (
   (O_Int (getInt Int))
   (O_UInt (getUInt Int))
   (O_Addr (getAddr Addr))
   (defObj)
  )
))
(declare-fun inv_main11 (Heap Int AddrRange) Bool)
(declare-fun inv_main14 (Heap Int AddrRange) Bool)
(declare-fun inv_main4 (Heap Int AddrRange) Bool)
(declare-fun inv_main7 (Heap Int AddrRange) Bool)
(assert (forall ((var0 Int) (var1 AddrRange) (var2 Int) (var3 Heap) (var4 Heap)) (or (not (and (and (= var4 emptyHeap) (= var3 (newBatchHeap (batchAlloc emptyHeap (O_Int var2) 100000)))) (= var1 (newAddrRange (batchAlloc emptyHeap (O_Int var2) 100000))))) (inv_main4 var3 var0 var1))))
(assert (forall ((var0 AddrRange) (var1 Int) (var2 Heap)) (or (not (and (inv_main11 var2 var1 var0) (and (not (= (+ var1 1) 15000)) (is-O_Int (read var2 (nthAddrRange var0 var1)))))) (inv_main14 var2 var1 var0))))
(assert (forall ((var0 Int) (var1 AddrRange) (var2 Heap) (var3 Int) (var4 AddrRange) (var5 Int) (var6 Heap)) (or (not (and (inv_main7 var6 var5 var4) (and (and (not (<= 0 (+ (+ 100000 (* (- 1) (+ var3 1))) (- 1)))) (and (and (is-O_Int (read var6 (nthAddrRange var4 var5))) (is-O_Int (read var6 (nthAddrRange var4 var5)))) (and (and (= var2 (write var6 (nthAddrRange var4 var5) (O_Int 10))) (= var3 var5)) (= var1 var4)))) (= var0 0)))) (inv_main11 var2 var0 var1))))
(assert (forall ((var0 Int) (var1 AddrRange) (var2 Heap) (var3 Int) (var4 AddrRange) (var5 Int) (var6 Heap)) (or (not (and (inv_main14 var6 var5 var4) (and (and (and (<= 0 (+ (+ 100000 (* (- 1) (+ var3 1))) (- 1))) (and (is-O_Int (read var6 (nthAddrRange var4 (+ var5 1)))) (is-O_Int (read var6 (nthAddrRange var4 (+ var5 1)))))) (and (and (= var2 (write var6 (nthAddrRange var4 (+ var5 1)) (O_Int 20))) (= var3 var5)) (= var1 var4))) (= var0 (+ var3 1))))) (inv_main11 var2 var0 var1))))
(assert (forall ((var0 Int) (var1 AddrRange) (var2 Int) (var3 Heap)) (or (not (and (inv_main11 var3 var2 var1) (and (and (<= 0 (+ (+ 100000 (* (- 1) (+ var2 1))) (- 1))) (and (= (+ var2 1) 15000) (is-O_Int (read var3 (nthAddrRange var1 var2))))) (= var0 (+ var2 1))))) (inv_main11 var3 var0 var1))))
(assert (forall ((var0 Int) (var1 AddrRange) (var2 Int) (var3 Heap)) (or (not (and (inv_main4 var3 var2 var1) (= var0 0))) (inv_main7 var3 var0 var1))))
(assert (forall ((var0 Int) (var1 AddrRange) (var2 Heap) (var3 Int) (var4 AddrRange) (var5 Int) (var6 Heap)) (or (not (and (inv_main7 var6 var5 var4) (and (and (<= 0 (+ (+ 100000 (* (- 1) (+ var3 1))) (- 1))) (and (and (is-O_Int (read var6 (nthAddrRange var4 var5))) (is-O_Int (read var6 (nthAddrRange var4 var5)))) (and (and (= var2 (write var6 (nthAddrRange var4 var5) (O_Int 10))) (= var3 var5)) (= var1 var4)))) (= var0 (+ var3 1))))) (inv_main7 var2 var0 var1))))
(assert (forall ((var0 AddrRange) (var1 Int) (var2 Heap)) (not (and (inv_main7 var2 var1 var0) (not (is-O_Int (read var2 (nthAddrRange var0 var1))))))))
(assert (forall ((var0 AddrRange) (var1 Int) (var2 Heap)) (not (and (inv_main7 var2 var1 var0) (and (is-O_Int (read var2 (nthAddrRange var0 var1))) (not (within var0 (nthAddrRange var0 var1))))))))
(assert (forall ((var0 AddrRange) (var1 Int) (var2 Heap)) (not (and (inv_main7 var2 var1 var0) (and (is-O_Int (read var2 (nthAddrRange var0 var1))) (not (is-O_Int (read var2 (nthAddrRange var0 var1)))))))))
(assert (forall ((var0 AddrRange) (var1 Int) (var2 Heap)) (not (and (inv_main11 var2 var1 var0) (not (is-O_Int (read var2 (nthAddrRange var0 var1))))))))
(assert (forall ((var0 AddrRange) (var1 Int) (var2 Heap)) (not (and (inv_main11 var2 var1 var0) (not (within var0 (nthAddrRange var0 var1)))))))
(assert (forall ((var0 AddrRange) (var1 Int) (var2 Heap)) (not (and (inv_main11 var2 var1 var0) (not (is-O_Int (read var2 (nthAddrRange var0 var1))))))))
(assert (forall ((var0 AddrRange) (var1 Int) (var2 Heap)) (not (and (inv_main11 var2 var1 var0) (and (is-O_Int (read var2 (nthAddrRange var0 var1))) (not (within var0 (nthAddrRange var0 var1))))))))
(assert (forall ((var0 AddrRange) (var1 Int) (var2 Heap)) (not (and (inv_main11 var2 var1 var0) (and (is-O_Int (read var2 (nthAddrRange var0 var1))) (not (= (getInt (read var2 (nthAddrRange var0 var1))) 10)))))))
(assert (forall ((var0 AddrRange) (var1 Int) (var2 Heap)) (not (and (inv_main14 var2 var1 var0) (not (is-O_Int (read var2 (nthAddrRange var0 (+ var1 1)))))))))
(assert (forall ((var0 AddrRange) (var1 Int) (var2 Heap)) (not (and (inv_main14 var2 var1 var0) (and (is-O_Int (read var2 (nthAddrRange var0 (+ var1 1)))) (not (within var0 (nthAddrRange var0 (+ var1 1)))))))))
(assert (forall ((var0 AddrRange) (var1 Int) (var2 Heap)) (not (and (inv_main14 var2 var1 var0) (and (is-O_Int (read var2 (nthAddrRange var0 (+ var1 1)))) (not (is-O_Int (read var2 (nthAddrRange var0 (+ var1 1))))))))))
(check-sat)
